%SETS
JOBS     = 1..5;
MACHINES = 1..5;
SPEED    = 5;

time        = array3d(JOBS,MACHINES,1..SPEED,[6, 2, 1, 1, 1, 14, 4, 3, 2, 2, 7, 2, 1, 1, 1, 2, 1, 1, 1, 1, 10, 3, 2, 2, 1, 4, 1, 1, 1, 1, 54, 18, 13, 11, 9, 78, 26, 19, 15, 14, 1, 1, 1, 1, 1, 31, 10, 7, 6, 5, 22, 7, 5, 4, 3, 59, 20, 14, 12, 10, 28, 9, 6, 5, 5, 20, 7, 5, 4, 3, 31, 10, 7, 6, 5, 12, 4, 3, 2, 2, 30, 10, 7, 6, 5, 45, 15, 11, 9, 8, 16, 5, 3, 3, 2, 73, 25, 17, 14, 13, 42, 14, 10, 8, 7, 105, 36, 25, 21, 19, 4, 1, 1, 1, 1, 19, 6, 4, 3, 3, 75, 26, 18, 15, 13]);
energy      = array3d(JOBS,MACHINES,1..SPEED,[94, 98, 99, 99, 99, 86, 96, 97, 98, 98, 93, 98, 99, 99, 99, 98, 99, 99, 99, 99, 90, 97, 98, 98, 99, 96, 99, 99, 99, 99, 58, 83, 87, 89, 91, 45, 77, 82, 86, 86, 99, 99, 99, 99, 99, 73, 90, 93, 94, 95, 80, 93, 95, 96, 97, 55, 81, 86, 88, 90, 75, 91, 94, 95, 95, 81, 93, 95, 96, 97, 73, 90, 93, 94, 95, 88, 96, 97, 98, 98, 74, 90, 93, 94, 95, 63, 86, 89, 91, 92, 85, 95, 97, 97, 98, 48, 77, 84, 86, 87, 65, 86, 90, 92, 93, 34, 69, 77, 81, 82, 96, 99, 99, 99, 99, 82, 94, 96, 97, 97, 47, 77, 83, 86, 87]);
precedence  = array2d(JOBS,MACHINES,[3, 0, 2, 4, 1, 4, 0, 1, 2, 3, 4, 0, 2, 1, 3, 2, 4, 0, 3, 1, 3, 0, 2, 4, 1]);
releaseDate = array2d(JOBS,MACHINES,[48, 40, 47, 49, 45, 106, 40, 56, 94, 95, 33, 0, 19, 14, 25, 88, 98, 60, 92, 71, 68, 20, 67, 80, 45]);
dueDate     = array2d(JOBS,MACHINES,[49, 45, 48, 50, 47, 107, 56, 94, 95, 106, 40, 14, 25, 19, 33, 92, 106, 71, 98, 88, 80, 45, 68, 85, 67]);